c Generated map
c Size: 12 * 12, weights in range: 1 to 10, walls: False, with ratio 0.0
c dim 3 of 5
c
p sp 144 264
c graph contains 144 nodes and 264 arcs
c
a 1 13 6
a 13 1 6
a 1 2 8
a 2 1 8
a 2 14 8
a 14 2 8
a 2 3 6
a 3 2 6
a 3 15 4
a 15 3 4
a 3 4 3
a 4 3 3
a 4 16 8
a 16 4 8
a 4 5 9
a 5 4 9
a 5 17 8
a 17 5 8
a 5 6 4
a 6 5 4
a 6 18 10
a 18 6 10
a 6 7 6
a 7 6 6
a 7 19 1
a 19 7 1
a 7 8 3
a 8 7 3
a 8 20 5
a 20 8 5
a 8 9 2
a 9 8 2
a 9 21 10
a 21 9 10
a 9 10 1
a 10 9 1
a 10 22 5
a 22 10 5
a 10 11 4
a 11 10 4
a 11 23 6
a 23 11 6
a 11 12 7
a 12 11 7
a 12 24 7
a 24 12 7
a 13 25 6
a 25 13 6
a 13 14 6
a 14 13 6
a 14 26 8
a 26 14 8
a 14 15 5
a 15 14 5
a 15 27 5
a 27 15 5
a 15 16 5
a 16 15 5
a 16 28 7
a 28 16 7
a 16 17 4
a 17 16 4
a 17 29 6
a 29 17 6
a 17 18 9
a 18 17 9
a 18 30 6
a 30 18 6
a 18 19 5
a 19 18 5
a 19 31 10
a 31 19 10
a 19 20 10
a 20 19 10
a 20 32 3
a 32 20 3
a 20 21 10
a 21 20 10
a 21 33 7
a 33 21 7
a 21 22 6
a 22 21 6
a 22 34 1
a 34 22 1
a 22 23 3
a 23 22 3
a 23 35 9
a 35 23 9
a 23 24 6
a 24 23 6
a 24 36 9
a 36 24 9
a 25 37 4
a 37 25 4
a 25 26 10
a 26 25 10
a 26 38 7
a 38 26 7
a 26 27 2
a 27 26 2
a 27 39 8
a 39 27 8
a 27 28 1
a 28 27 1
a 28 40 2
a 40 28 2
a 28 29 6
a 29 28 6
a 29 41 5
a 41 29 5
a 29 30 6
a 30 29 6
a 30 42 4
a 42 30 4
a 30 31 7
a 31 30 7
a 31 43 6
a 43 31 6
a 31 32 1
a 32 31 1
a 32 44 1
a 44 32 1
a 32 33 10
a 33 32 10
a 33 45 2
a 45 33 2
a 33 34 8
a 34 33 8
a 34 46 10
a 46 34 10
a 34 35 8
a 35 34 8
a 35 47 10
a 47 35 10
a 35 36 1
a 36 35 1
a 36 48 5
a 48 36 5
a 37 49 9
a 49 37 9
a 37 38 10
a 38 37 10
a 38 50 3
a 50 38 3
a 38 39 10
a 39 38 10
a 39 51 4
a 51 39 4
a 39 40 5
a 40 39 5
a 40 52 4
a 52 40 4
a 40 41 6
a 41 40 6
a 41 53 10
a 53 41 10
a 41 42 3
a 42 41 3
a 42 54 6
a 54 42 6
a 42 43 9
a 43 42 9
a 43 55 5
a 55 43 5
a 43 44 3
a 44 43 3
a 44 56 1
a 56 44 1
a 44 45 4
a 45 44 4
a 45 57 6
a 57 45 6
a 45 46 2
a 46 45 2
a 46 58 2
a 58 46 2
a 46 47 10
a 47 46 10
a 47 59 5
a 59 47 5
a 47 48 2
a 48 47 2
a 48 60 4
a 60 48 4
a 49 61 6
a 61 49 6
a 49 50 7
a 50 49 7
a 50 62 4
a 62 50 4
a 50 51 7
a 51 50 7
a 51 63 2
a 63 51 2
a 51 52 8
a 52 51 8
a 52 64 9
a 64 52 9
a 52 53 5
a 53 52 5
a 53 65 6
a 65 53 6
a 53 54 2
a 54 53 2
a 54 66 3
a 66 54 3
a 54 55 5
a 55 54 5
a 55 67 7
a 67 55 7
a 55 56 3
a 56 55 3
a 56 68 7
a 68 56 7
a 56 57 7
a 57 56 7
a 57 69 9
a 69 57 9
a 57 58 7
a 58 57 7
a 58 70 4
a 70 58 4
a 58 59 10
a 59 58 10
a 59 71 9
a 71 59 9
a 59 60 8
a 60 59 8
a 60 72 9
a 72 60 9
a 61 73 9
a 73 61 9
a 61 62 3
a 62 61 3
a 62 74 10
a 74 62 10
a 62 63 6
a 63 62 6
a 63 75 9
a 75 63 9
a 63 64 3
a 64 63 3
a 64 76 3
a 76 64 3
a 64 65 7
a 65 64 7
a 65 77 9
a 77 65 9
a 65 66 8
a 66 65 8
a 66 78 9
a 78 66 9
a 66 67 3
a 67 66 3
a 67 79 10
a 79 67 10
a 67 68 9
a 68 67 9
a 68 80 3
a 80 68 3
a 68 69 9
a 69 68 9
a 69 81 5
a 81 69 5
a 69 70 6
a 70 69 6
a 70 82 2
a 82 70 2
a 70 71 3
a 71 70 3
a 71 83 6
a 83 71 6
a 71 72 7
a 72 71 7
a 72 84 8
a 84 72 8
a 73 85 5
a 85 73 5
a 73 74 10
a 74 73 10
a 74 86 4
a 86 74 4
a 74 75 5
a 75 74 5
a 75 87 4
a 87 75 4
a 75 76 4
a 76 75 4
a 76 88 8
a 88 76 8
a 76 77 7
a 77 76 7
a 77 89 1
a 89 77 1
a 77 78 8
a 78 77 8
a 78 90 3
a 90 78 3
a 78 79 3
a 79 78 3
a 79 91 9
a 91 79 9
a 79 80 5
a 80 79 5
a 80 92 1
a 92 80 1
a 80 81 2
a 81 80 2
a 81 93 9
a 93 81 9
a 81 82 9
a 82 81 9
a 82 94 9
a 94 82 9
a 82 83 3
a 83 82 3
a 83 95 6
a 95 83 6
a 83 84 7
a 84 83 7
a 84 96 10
a 96 84 10
a 85 97 3
a 97 85 3
a 85 86 8
a 86 85 8
a 86 98 1
a 98 86 1
a 86 87 2
a 87 86 2
a 87 99 9
a 99 87 9
a 87 88 1
a 88 87 1
a 88 100 8
a 100 88 8
a 88 89 10
a 89 88 10
a 89 101 6
a 101 89 6
a 89 90 5
a 90 89 5
a 90 102 5
a 102 90 5
a 90 91 9
a 91 90 9
a 91 103 5
a 103 91 5
a 91 92 5
a 92 91 5
a 92 104 9
a 104 92 9
a 92 93 3
a 93 92 3
a 93 105 9
a 105 93 9
a 93 94 7
a 94 93 7
a 94 106 8
a 106 94 8
a 94 95 8
a 95 94 8
a 95 107 4
a 107 95 4
a 95 96 5
a 96 95 5
a 96 108 6
a 108 96 6
a 97 109 1
a 109 97 1
a 97 98 10
a 98 97 10
a 98 110 4
a 110 98 4
a 98 99 9
a 99 98 9
a 99 111 9
a 111 99 9
a 99 100 2
a 100 99 2
a 100 112 8
a 112 100 8
a 100 101 5
a 101 100 5
a 101 113 7
a 113 101 7
a 101 102 3
a 102 101 3
a 102 114 4
a 114 102 4
a 102 103 10
a 103 102 10
a 103 115 8
a 115 103 8
a 103 104 7
a 104 103 7
a 104 116 2
a 116 104 2
a 104 105 5
a 105 104 5
a 105 117 5
a 117 105 5
a 105 106 6
a 106 105 6
a 106 118 10
a 118 106 10
a 106 107 2
a 107 106 2
a 107 119 2
a 119 107 2
a 107 108 3
a 108 107 3
a 108 120 3
a 120 108 3
a 109 121 8
a 121 109 8
a 109 110 4
a 110 109 4
a 110 122 2
a 122 110 2
a 110 111 2
a 111 110 2
a 111 123 7
a 123 111 7
a 111 112 8
a 112 111 8
a 112 124 10
a 124 112 10
a 112 113 8
a 113 112 8
a 113 125 6
a 125 113 6
a 113 114 7
a 114 113 7
a 114 126 9
a 126 114 9
a 114 115 9
a 115 114 9
a 115 127 8
a 127 115 8
a 115 116 8
a 116 115 8
a 116 128 5
a 128 116 5
a 116 117 10
a 117 116 10
a 117 129 2
a 129 117 2
a 117 118 5
a 118 117 5
a 118 130 7
a 130 118 7
a 118 119 5
a 119 118 5
a 119 131 4
a 131 119 4
a 119 120 4
a 120 119 4
a 120 132 5
a 132 120 5
a 121 133 5
a 133 121 5
a 121 122 5
a 122 121 5
a 122 134 4
a 134 122 4
a 122 123 3
a 123 122 3
a 123 135 3
a 135 123 3
a 123 124 6
a 124 123 6
a 124 136 10
a 136 124 10
a 124 125 3
a 125 124 3
a 125 137 3
a 137 125 3
a 125 126 7
a 126 125 7
a 126 138 8
a 138 126 8
a 126 127 2
a 127 126 2
a 127 139 1
a 139 127 1
a 127 128 5
a 128 127 5
a 128 140 8
a 140 128 8
a 128 129 5
a 129 128 5
a 129 141 7
a 141 129 7
a 129 130 2
a 130 129 2
a 130 142 9
a 142 130 9
a 130 131 1
a 131 130 1
a 131 143 6
a 143 131 6
a 131 132 6
a 132 131 6
a 132 144 4
a 144 132 4
a 133 134 6
a 134 133 6
a 134 135 5
a 135 134 5
a 135 136 8
a 136 135 8
a 136 137 10
a 137 136 10
a 137 138 8
a 138 137 8
a 138 139 1
a 139 138 1
a 139 140 10
a 140 139 10
a 140 141 3
a 141 140 3
a 141 142 3
a 142 141 3
a 142 143 7
a 143 142 7
a 143 144 9
a 144 143 9
